
Gurobi 10.0.1 (linux64) logging started Sun Nov 26 15:43:22 2023

Set parameter LogFile to value "ArtificialInstance/ExperimentV2/S3T5K1/AdRo/gurobiSpRo48.txt"
Gurobi Optimizer version 10.0.1 build v10.0.1rc0 (linux64)

CPU model: AMD EPYC 7H12 64-Core Processor, instruction set [SSE2|AVX|AVX2]
Thread count: 128 physical cores, 128 logical processors, using up to 32 threads

Academic license 656792 - for non-commercial use only - registered to b.___@student.vu.nl
Optimize a model with 4527 rows, 4165 columns and 16385 nonzeros
Model fingerprint: 0xf07d595b
Variable types: 1 continuous, 4164 integer (4164 binary)
Coefficient statistics:
  Matrix range     [1e+00, 4e+01]
  Objective range  [1e+00, 2e+01]
  Bounds range     [1e+00, 1e+00]
  RHS range        [1e+00, 1e+00]
Presolve removed 1719 rows and 1395 columns
Presolve time: 0.05s
Presolved: 2808 rows, 2770 columns, 10784 nonzeros
Variable types: 1 continuous, 2769 integer (2769 binary)
Found heuristic solution: objective 77.3682400

Root relaxation: objective 7.013007e+01, 786 iterations, 0.02 seconds (0.01 work units)

    Nodes    |    Current Node    |     Objective Bounds      |     Work
 Expl Unexpl |  Obj  Depth IntInf | Incumbent    BestBd   Gap | It/Node Time

     0     0   70.13007    0   30   77.36824   70.13007  9.36%     -    0s
H    0     0                      70.1300705   70.13007  0.00%     -    0s
     0     0   70.13007    0   30   70.13007   70.13007  0.00%     -    0s

Explored 1 nodes (1330 simplex iterations) in 0.14 seconds (0.09 work units)
Thread count was 32 (of 128 available processors)

Solution count 2: 70.1301 77.3682 

Optimal solution found (tolerance 1.00e-04)
Best objective 7.013007045470e+01, best bound 7.013007045470e+01, gap 0.0000%
